PARAMETER_FILE = even/LKH_uncomplete_graph/x5/de/par/random149.par
PROBLEM_FILE = even/LKH_uncomplete_graph/x5/de/mat/random149.tsp
Successes/Runs = 0/10
Cost.min = 929, Cost.avg = 929.00, Cost.max = 929
Gap.min = 0.0000%, Gap.avg = 0.0000%, Gap.max = 0.0000%
Trials.min = 1000, Trials.avg = 1000.0, Trials.max = 1000
Time.min = 0.67 sec., Time.avg = 0.73 sec., Time.max = 0.84 sec.
Time.total = 7.44 sec.
请按任意键继续. . . 
